120
150
60
41
53
54
43
49
45
49
56
50
60
54
53
43
60
43
48
47
48
56
54
46
56
51
49
55
43
46
50
60
56
51
50
48
58
40
57
52
50
41
60
52
58
42
60
49
51
45
54
49
40
57
44
53
43
52
46
52
41
45
52
46
59
47
59
44
50
50
55
50
53
42
49
57
56
53
40
51
54
54
49
41
53
49
53
51
45
46
51
52
51
45
44
53
60
60
56
60
51
56
53
46
43
47
47
40
56
55
51
51
59
41
48
48
59
40
43
60
44
60
